networks/zoo_138_3755/zoo_138_3755-lower.txt
Number of groups: 69
Flow 1: {1 2 0} {2 71 0} 
Flow 2: {1 4 0} {4 3 0} {3 72 0} 
Flow 3: {4 73 0} 
Flow 4: {4 6 0} {6 5 0} {5 74 0} 
Flow 5: {6 75 0} 
Flow 6: {2 7 0} {7 76 0} 
Flow 7: {7 52 0} {52 8 0} {8 77 0} 
Flow 8: {2 63 0} {63 9 0} {9 78 0} 
Flow 9: {9 10 0} {10 79 0} 
Flow 10: {6 11 0} {11 80 0} 
Flow 11: {11 12 0} {12 81 0} 
Flow 12: {2 33 0} {33 13 0} {13 82 0} 
Flow 13: {13 14 0} {14 83 0} 
Flow 14: {57 31 0} {31 15 0} {15 84 0} 
Flow 14: {63 44 0} {44 57 0} Flow 15: {13 16 0} {16 85 0} 
Flow 16: {4 23 0} {23 17 0} {17 86 0} 
Flow 17: {17 18 0} {18 87 0} 
Flow 18: {1 24 0} {24 19 0} {19 88 0} 
Flow 19: {19 20 0} {20 89 0} 
Flow 20: {19 21 0} {21 90 0} 
Flow 21: {23 22 0} {22 91 0} 
Flow 22: {23 92 0} 
Flow 23: {24 93 0} 
Flow 24: {23 25 0} {25 94 0} 
Flow 25: {25 26 0} {26 95 0} 
Flow 26: {4 62 0} {62 27 0} {27 96 0} 
Flow 27: {62 28 0} {28 97 0} 
Flow 28: {33 29 0} {29 98 0} 
Flow 29: {13 30 0} {30 99 0} 
Flow 30: {31 100 0} 
Flow 31: {16 43 0} {43 45 0} {45 32 0} {32 101 0} 
Flow 32: {33 102 0} 
Flow 33: {14 41 0} {41 34 0} {34 103 0} 
Flow 34: {63 35 0} {35 104 0} 
Flow 35: {35 36 0} {36 105 0} 
Flow 36: {9 37 0} {37 106 0} 
Flow 37: {9 38 0} {38 107 0} 
Flow 38: {26 39 0} {39 108 0} 
Flow 39: {17 40 0} {40 109 0} 
Flow 40: {41 110 0} 
Flow 41: {64 42 0} {42 111 0} 
Flow 41: {63 64 0} Flow 42: {43 112 0} 
Flow 43: {44 113 0} 
Flow 44: {45 114 0} 
Flow 45: {4 46 0} {46 115 0} 
Flow 46: {4 47 0} {47 116 0} 
Flow 47: {47 48 0} {48 117 0} 
Flow 48: {2 49 0} {49 118 0} 
Flow 49: {1 50 0} {50 119 0} 
Flow 50: {50 51 0} {51 120 0} 
Flow 51: {52 121 0} 
Flow 52: {1 55 0} {55 53 0} {53 122 0} 
Flow 53: {55 54 0} {54 123 0} 
Flow 54: {55 124 0} 
Flow 55: {55 56 0} {56 125 0} 
Flow 56: {57 126 0} 
Flow 57: {1 69 0} {69 68 0} {68 67 0} {67 58 0} {58 127 0} 
Flow 58: {2 59 0} {59 128 0} 
Flow 59: {68 60 0} {60 129 0} 
Flow 60: {3 61 0} {61 130 0} 
Flow 61: {62 131 0} 
Flow 62: {63 132 0} 
Flow 63: {64 133 0} 
Flow 64: {64 65 0} {65 134 0} 
Flow 65: {9 66 0} {66 135 0} 
Flow 66: {67 136 0} 
Flow 67: {68 137 0} 
Flow 68: {69 138 0} 
Flow 69: {2 1 0} {1 70 0} 
Flow 70: {2 4 0} Flow 118: {49 51 0} Flow 125: {65 58 0} Flow 137: {3 4 0} {4 1 0} Flow 138: {4 2 0} Flow 141: {62 13 0} Flow 159: {5 8 0} Flow 161: {27 10 0} Flow 170: {47 19 0} Flow 187: {28 36 0} Flow 188: {28 37 0} Flow 193: {62 64 0} Flow 211: {61 60 0} Flow 221: {5 6 0} {6 4 0} Flow 226: {8 52 0} {52 7 0} Flow 264: {11 51 0} Flow 266: {6 55 0} Flow 345: {7 2 0} Flow 397: {8 5 0} Flow 451: {9 63 0} {63 2 0} Flow 462: {9 30 0} {30 13 0} Flow 463: {30 14 0} Flow 465: {63 62 0} {62 17 0} Flow 469: {22 21 0} {62 23 0} Flow 474: {18 26 0} Flow 475: {10 27 0} Flow 476: {37 28 0} Flow 477: {13 33 0} Flow 514: {58 67 0} Flow 517: {10 9 0} Flow 519: {27 62 0} {62 4 0} Flow 534: {23 24 0} Flow 567: {11 6 0} Flow 606: {51 49 0} Flow 607: {51 50 0} Flow 624: {12 11 0} Flow 667: {33 2 0} Flow 669: {13 62 0} Flow 675: {30 9 0} Flow 680: {14 44 0} Flow 700: {62 63 0} Flow 735: {14 13 0} Flow 743: {14 30 0} Flow 758: {30 27 0} Flow 766: {44 63 0} Flow 800: {15 31 0} {31 57 0} {57 44 0} Flow 811: {57 43 0} {43 16 0} {16 13 0} Flow 812: {44 14 0} Flow 825: {15 32 0} Flow 834: {32 45 0} Flow 869: {43 57 0} Flow 888: {16 44 0} Flow 923: {17 62 0} Flow 940: {17 23 0} Flow 963: {40 42 0} Flow 990: {18 17 0} Flow 1009: {26 25 0} Flow 1048: {19 24 0} {24 1 0} Flow 1049: {19 47 0} {47 4 0} Flow 1063: {24 23 0} Flow 1066: {21 22 0} Flow 1098: {48 54 0} Flow 1113: {20 19 0} Flow 1151: {21 19 0} Flow 1158: {22 23 0} {23 62 0} Flow 1203: {23 4 0} Flow 1396: {25 23 0} Flow 1456: {26 18 0} Flow 1520: {27 30 0} Flow 1570: {28 62 0} Flow 1578: {37 9 0} Flow 1599: {36 35 0} Flow 1630: {29 33 0} Flow 1812: {32 15 0} Flow 1814: {45 43 0} Flow 1937: {34 41 0} {41 14 0} Flow 1951: {35 63 0} Flow 1964: {44 16 0} Flow 1979: {36 28 0} Flow 2078: {38 9 0} Flow 2132: {39 26 0} Flow 2144: {40 17 0} Flow 2192: {42 64 0} Flow 2257: {64 62 0} Flow 2258: {64 63 0} Flow 2263: {42 40 0} Flow 2443: {46 4 0} Flow 2546: {48 47 0} Flow 2590: {54 55 0} Flow 2605: {49 2 0} Flow 2615: {51 11 0} Flow 2673: {50 1 0} Flow 2808: {53 55 0} {55 1 0} Flow 2812: {55 6 0} Flow 2843: {54 48 0} Flow 2977: {56 55 0} Flow 3081: {67 68 0} {68 69 0} {69 1 0} Flow 3082: {58 65 0} {65 64 0} Flow 3134: {60 61 0} Flow 3141: {59 2 0} Flow 3208: {60 68 0} Flow 3210: {61 3 0} Flow 3551: {66 9 0} Time taken running everything: 1 seconds
