networks/zoo_138_3755/zoo_138_3755-lower.sol
<?xml version = "1.0" encoding="UTF-8" standalone="yes"?>
<CPLEXSolution version="1.2">
 <header
   problemName="networks/zoo_138_3755/zoo_138_3755-lower.lp"
   solutionName="incumbent"
   solutionIndex="-1"
   objectiveValue="69"
   solutionTypeValue="3"
   solutionTypeString="primal"
   solutionStatusValue="101"
   solutionStatusString="integer optimal solution"
   solutionMethodString="mip"
   primalFeasible="1"
   dualFeasible="1"
   MIPNodes="0"
   MIPIterations="0"
   writeLevel="3"/>
 <quality
   epInt="1.0000000000000001e-05"
   epRHS="9.9999999999999995e-07"
   maxIntInfeas="0"
   maxPrimalInfeas="0"
   maxX="1"
   maxSlack="1"/>
 <variables>
  <variable name="Y(1,2)" index="1" value="1"/>
  <variable name="Y(2,3)" index="140" value="1"/>
  <variable name="Y(3,4)" index="279" value="1"/>
  <variable name="Y(4,5)" index="418" value="1"/>
  <variable name="Y(5,6)" index="557" value="1"/>
  <variable name="Y(6,7)" index="696" value="1"/>
  <variable name="Y(7,8)" index="835" value="1"/>
  <variable name="Y(8,9)" index="974" value="1"/>
  <variable name="Y(9,10)" index="1113" value="1"/>
  <variable name="Y(10,11)" index="1252" value="1"/>
  <variable name="Y(11,12)" index="1391" value="1"/>
  <variable name="Y(12,13)" index="1530" value="1"/>
  <variable name="Y(13,14)" index="1669" value="1"/>
  <variable name="Y(14,15)" index="1808" value="1"/>
  <variable name="Y(15,16)" index="1947" value="1"/>
  <variable name="Y(16,17)" index="2086" value="1"/>
  <variable name="Y(17,18)" index="2225" value="1"/>
  <variable name="Y(18,19)" index="2364" value="1"/>
  <variable name="Y(19,20)" index="2503" value="1"/>
  <variable name="Y(20,21)" index="2642" value="1"/>
  <variable name="Y(21,22)" index="2781" value="1"/>
  <variable name="Y(22,23)" index="2920" value="1"/>
  <variable name="Y(23,24)" index="3059" value="1"/>
  <variable name="Y(24,25)" index="3198" value="1"/>
  <variable name="Y(25,26)" index="3337" value="1"/>
  <variable name="Y(26,27)" index="3476" value="1"/>
  <variable name="Y(27,28)" index="3615" value="1"/>
  <variable name="Y(28,29)" index="3754" value="1"/>
  <variable name="Y(29,30)" index="3893" value="1"/>
  <variable name="Y(30,31)" index="4032" value="1"/>
  <variable name="Y(31,32)" index="4171" value="1"/>
  <variable name="Y(32,33)" index="4310" value="1"/>
  <variable name="Y(33,34)" index="4449" value="1"/>
  <variable name="Y(34,35)" index="4588" value="1"/>
  <variable name="Y(35,36)" index="4727" value="1"/>
  <variable name="Y(36,37)" index="4866" value="1"/>
  <variable name="Y(37,38)" index="5005" value="1"/>
  <variable name="Y(38,39)" index="5144" value="1"/>
  <variable name="Y(39,40)" index="5283" value="1"/>
  <variable name="Y(40,41)" index="5422" value="1"/>
  <variable name="Y(41,42)" index="5561" value="1"/>
  <variable name="Y(42,43)" index="5700" value="1"/>
  <variable name="Y(43,44)" index="5839" value="1"/>
  <variable name="Y(44,45)" index="5978" value="1"/>
  <variable name="Y(45,46)" index="6117" value="1"/>
  <variable name="Y(46,47)" index="6256" value="1"/>
  <variable name="Y(47,48)" index="6395" value="1"/>
  <variable name="Y(48,49)" index="6534" value="1"/>
  <variable name="Y(49,50)" index="6673" value="1"/>
  <variable name="Y(50,51)" index="6812" value="1"/>
  <variable name="Y(51,52)" index="6951" value="1"/>
  <variable name="Y(52,53)" index="7090" value="1"/>
  <variable name="Y(53,54)" index="7229" value="1"/>
  <variable name="Y(54,55)" index="7368" value="1"/>
  <variable name="Y(55,56)" index="7507" value="1"/>
  <variable name="Y(56,57)" index="7646" value="1"/>
  <variable name="Y(57,58)" index="7785" value="1"/>
  <variable name="Y(58,59)" index="7924" value="1"/>
  <variable name="Y(59,60)" index="8063" value="1"/>
  <variable name="Y(60,61)" index="8202" value="1"/>
  <variable name="Y(61,62)" index="8341" value="1"/>
  <variable name="Y(62,63)" index="8480" value="1"/>
  <variable name="Y(63,64)" index="8619" value="1"/>
  <variable name="Y(64,65)" index="8758" value="1"/>
  <variable name="Y(65,66)" index="8897" value="1"/>
  <variable name="Y(66,67)" index="9036" value="1"/>
  <variable name="Y(67,68)" index="9175" value="1"/>
  <variable name="Y(68,69)" index="9314" value="1"/>
  <variable name="Y(69,1)" index="9384" value="1"/>
  <variable name="X(1,2,1)" index="518190" value="1"/>
  <variable name="X(1,4,2)" index="521946" value="1"/>
  <variable name="X(1,24,18)" index="525717" value="1"/>
  <variable name="X(1,50,49)" index="529503" value="1"/>
  <variable name="X(1,55,52)" index="533261" value="1"/>
  <variable name="X(1,69,57)" index="537021" value="1"/>
  <variable name="X(1,70,69)" index="540788" value="1"/>
  <variable name="X(2,1,69)" index="544543" value="1"/>
  <variable name="X(2,4,70)" index="548299" value="1"/>
  <variable name="X(2,7,6)" index="551990" value="1"/>
  <variable name="X(2,33,12)" index="555751" value="1"/>
  <variable name="X(2,49,48)" index="559542" value="1"/>
  <variable name="X(2,59,58)" index="563307" value="1"/>
  <variable name="X(2,63,8)" index="567012" value="1"/>
  <variable name="X(2,71,1)" index="570760" value="1"/>
  <variable name="X(3,4,137)" index="574651" value="1"/>
  <variable name="X(3,61,60)" index="578329" value="1"/>
  <variable name="X(3,72,2)" index="582026" value="1"/>
  <variable name="X(4,1,137)" index="585916" value="1"/>
  <variable name="X(4,2,138)" index="589672" value="1"/>
  <variable name="X(4,3,2)" index="593291" value="1"/>
  <variable name="X(4,6,4)" index="597048" value="1"/>
  <variable name="X(4,23,16)" index="600815" value="1"/>
  <variable name="X(4,46,45)" index="604599" value="1"/>
  <variable name="X(4,47,46)" index="608355" value="1"/>
  <variable name="X(4,62,26)" index="612090" value="1"/>
  <variable name="X(4,73,3)" index="615822" value="1"/>
  <variable name="X(5,6,221)" index="619795" value="1"/>
  <variable name="X(5,8,159)" index="623488" value="1"/>
  <variable name="X(5,74,4)" index="627088" value="1"/>
  <variable name="X(6,4,221)" index="631060" value="1"/>
  <variable name="X(6,5,4)" index="634598" value="1"/>
  <variable name="X(6,11,10)" index="638359" value="1"/>
  <variable name="X(6,55,266)" index="642370" value="1"/>
  <variable name="X(6,75,5)" index="645864" value="1"/>
  <variable name="X(7,2,345)" index="649959" value="1"/>
  <variable name="X(7,52,7)" index="653376" value="1"/>
  <variable name="X(7,76,6)" index="657130" value="1"/>
  <variable name="X(8,5,397)" index="661276" value="1"/>
  <variable name="X(8,52,226)" index="664860" value="1"/>
  <variable name="X(8,77,7)" index="668396" value="1"/>
  <variable name="X(9,10,9)" index="672153" value="1"/>
  <variable name="X(9,30,462)" index="676361" value="1"/>
  <variable name="X(9,37,36)" index="679690" value="1"/>
  <variable name="X(9,38,37)" index="683446" value="1"/>
  <variable name="X(9,63,451)" index="687615" value="1"/>
  <variable name="X(9,66,65)" index="690984" value="1"/>
  <variable name="X(9,78,8)" index="694682" value="1"/>
  <variable name="X(10,9,517)" index="698946" value="1"/>
  <variable name="X(10,27,475)" index="702659" value="1"/>
  <variable name="X(10,79,9)" index="705948" value="1"/>
  <variable name="X(11,6,567)" index="710261" value="1"/>
  <variable name="X(11,12,11)" index="713460" value="1"/>
  <variable name="X(11,51,264)" index="717468" value="1"/>
  <variable name="X(11,80,10)" index="720969" value="1"/>
  <variable name="X(12,11,624)" index="725338" value="1"/>
  <variable name="X(12,81,11)" index="728480" value="1"/>
  <variable name="X(13,14,13)" index="732237" value="1"/>
  <variable name="X(13,16,15)" index="735994" value="1"/>
  <variable name="X(13,30,29)" index="739763" value="1"/>
  <variable name="X(13,33,477)" index="743966" value="1"/>
  <variable name="X(13,62,669)" index="747913" value="1"/>
  <variable name="X(13,82,12)" index="751011" value="1"/>
  <variable name="X(14,13,735)" index="755489" value="1"/>
  <variable name="X(14,30,743)" index="759252" value="1"/>
  <variable name="X(14,41,33)" index="762297" value="1"/>
  <variable name="X(14,44,680)" index="766699" value="1"/>
  <variable name="X(14,83,13)" index="769787" value="1"/>
  <variable name="X(15,31,800)" index="774329" value="1"/>
  <variable name="X(15,32,825)" index="778109" value="1"/>
  <variable name="X(15,84,14)" index="781053" value="1"/>
  <variable name="X(16,13,811)" index="785605" value="1"/>
  <variable name="X(16,43,31)" index="788580" value="1"/>
  <variable name="X(16,44,888)" index="793192" value="1"/>
  <variable name="X(16,85,15)" index="796074" value="1"/>
  <variable name="X(17,18,17)" index="799831" value="1"/>
  <variable name="X(17,23,940)" index="804509" value="1"/>
  <variable name="X(17,40,39)" index="807363" value="1"/>
  <variable name="X(17,62,923)" index="812002" value="1"/>
  <variable name="X(17,86,16)" index="814850" value="1"/>
  <variable name="X(18,17,990)" index="819579" value="1"/>
  <variable name="X(18,26,474)" index="822818" value="1"/>
  <variable name="X(18,87,17)" index="826116" value="1"/>
  <variable name="X(19,20,19)" index="829873" value="1"/>
  <variable name="X(19,21,20)" index="833629" value="1"/>
  <variable name="X(19,24,1048)" index="838412" value="1"/>
  <variable name="X(19,47,1049)" index="842168" value="1"/>
  <variable name="X(19,88,18)" index="844892" value="1"/>
  <variable name="X(20,19,1113)" index="849742" value="1"/>
  <variable name="X(20,89,19)" index="852403" value="1"/>
  <variable name="X(21,19,1151)" index="857290" value="1"/>
  <variable name="X(21,22,1066)" index="860960" value="1"/>
  <variable name="X(21,90,20)" index="863669" value="1"/>
  <variable name="X(22,21,469)" index="867873" value="1"/>
  <variable name="X(22,23,1158)" index="872317" value="1"/>
  <variable name="X(22,91,21)" index="874935" value="1"/>
  <variable name="X(23,4,1203)" index="879872" value="1"/>
  <variable name="X(23,17,16)" index="882440" value="1"/>
  <variable name="X(23,22,21)" index="886200" value="1"/>
  <variable name="X(23,24,534)" index="890468" value="1"/>
  <variable name="X(23,25,24)" index="893713" value="1"/>
  <variable name="X(23,62,1158)" index="898602" value="1"/>
  <variable name="X(23,92,22)" index="901221" value="1"/>
  <variable name="X(24,1,1048)" index="906002" value="1"/>
  <variable name="X(24,19,18)" index="908727" value="1"/>
  <variable name="X(24,23,1063)" index="913527" value="1"/>
  <variable name="X(24,93,23)" index="916242" value="1"/>
  <variable name="X(25,23,1396)" index="921370" value="1"/>
  <variable name="X(25,26,25)" index="923754" value="1"/>
  <variable name="X(25,94,24)" index="927508" value="1"/>
  <variable name="X(26,18,1456)" index="932695" value="1"/>
  <variable name="X(26,25,1009)" index="936003" value="1"/>
  <variable name="X(26,39,38)" index="938787" value="1"/>
  <variable name="X(26,95,25)" index="942529" value="1"/>
  <variable name="X(27,10,161)" index="946420" value="1"/>
  <variable name="X(27,30,1520)" index="951534" value="1"/>
  <variable name="X(27,62,519)" index="954288" value="1"/>
  <variable name="X(27,96,26)" index="957550" value="1"/>
  <variable name="X(28,36,187)" index="961466" value="1"/>
  <variable name="X(28,37,188)" index="965222" value="1"/>
  <variable name="X(28,62,1570)" index="970359" value="1"/>
  <variable name="X(28,97,27)" index="972571" value="1"/>
  <variable name="X(29,33,1630)" index="977929" value="1"/>
  <variable name="X(29,98,28)" index="980082" value="1"/>
  <variable name="X(30,9,675)" index="984484" value="1"/>
  <variable name="X(30,13,462)" index="988026" value="1"/>
  <variable name="X(30,14,463)" index="991782" value="1"/>
  <variable name="X(30,27,758)" index="995832" value="1"/>
  <variable name="X(30,99,29)" index="998858" value="1"/>
  <variable name="X(31,15,14)" index="1002598" value="1"/>
  <variable name="X(31,57,800)" index="1007139" value="1"/>
  <variable name="X(31,100,30)" index="1010124" value="1"/>
  <variable name="X(32,15,1812)" index="1015661" value="1"/>
  <variable name="X(32,45,834)" index="1018438" value="1"/>
  <variable name="X(32,101,31)" index="1021390" value="1"/>
  <variable name="X(33,2,667)" index="1025781" value="1"/>
  <variable name="X(33,13,12)" index="1028881" value="1"/>
  <variable name="X(33,29,28)" index="1032652" value="1"/>
  <variable name="X(33,102,32)" index="1036411" value="1"/>
  <variable name="X(34,41,1937)" index="1042071" value="1"/>
  <variable name="X(34,103,33)" index="1043922" value="1"/>
  <variable name="X(35,36,35)" index="1047679" value="1"/>
  <variable name="X(35,63,1951)" index="1053350" value="1"/>
  <variable name="X(35,104,34)" index="1055188" value="1"/>
  <variable name="X(36,28,1979)" index="1060888" value="1"/>
  <variable name="X(36,35,1599)" index="1064263" value="1"/>
  <variable name="X(36,105,35)" index="1066454" value="1"/>
  <variable name="X(37,9,1578)" index="1071752" value="1"/>
  <variable name="X(37,28,476)" index="1074405" value="1"/>
  <variable name="X(37,106,36)" index="1077720" value="1"/>
  <variable name="X(38,9,2078)" index="1083517" value="1"/>
  <variable name="X(38,107,37)" index="1085231" value="1"/>
  <variable name="X(39,26,2132)" index="1091081" value="1"/>
  <variable name="X(39,108,38)" index="1092742" value="1"/>
  <variable name="X(40,17,2144)" index="1098603" value="1"/>
  <variable name="X(40,42,963)" index="1101177" value="1"/>
  <variable name="X(40,109,39)" index="1104008" value="1"/>
  <variable name="X(41,14,1937)" index="1109661" value="1"/>
  <variable name="X(41,34,33)" index="1111512" value="1"/>
  <variable name="X(41,110,40)" index="1115274" value="1"/>
  <variable name="X(42,40,2263)" index="1121252" value="1"/>
  <variable name="X(42,64,2192)" index="1124936" value="1"/>
  <variable name="X(42,111,41)" index="1126540" value="1"/>
  <variable name="X(43,16,811)" index="1131065" value="1"/>
  <variable name="X(43,45,31)" index="1134040" value="1"/>
  <variable name="X(43,57,869)" index="1138633" value="1"/>
  <variable name="X(43,112,42)" index="1141561" value="1"/>
  <variable name="X(44,14,812)" index="1146086" value="1"/>
  <variable name="X(44,16,1964)" index="1150993" value="1"/>
  <variable name="X(44,57,14)" index="1152798" value="1"/>
  <variable name="X(44,63,766)" index="1157305" value="1"/>
  <variable name="X(44,113,43)" index="1160337" value="1"/>
  <variable name="X(45,32,31)" index="1164080" value="1"/>
  <variable name="X(45,43,1814)" index="1169618" value="1"/>
  <variable name="X(45,114,44)" index="1171603" value="1"/>
  <variable name="X(46,4,2443)" index="1177757" value="1"/>
  <variable name="X(46,115,45)" index="1179114" value="1"/>
  <variable name="X(47,4,1049)" index="1183873" value="1"/>
  <variable name="X(47,19,170)" index="1186749" value="1"/>
  <variable name="X(47,48,47)" index="1190381" value="1"/>
  <variable name="X(47,116,46)" index="1194135" value="1"/>
  <variable name="X(48,47,2546)" index="1200390" value="1"/>
  <variable name="X(48,54,1098)" index="1202697" value="1"/>
  <variable name="X(48,117,47)" index="1205401" value="1"/>
  <variable name="X(49,2,2605)" index="1211714" value="1"/>
  <variable name="X(49,51,118)" index="1212982" value="1"/>
  <variable name="X(49,118,48)" index="1216667" value="1"/>
  <variable name="X(50,1,2673)" index="1223047" value="1"/>
  <variable name="X(50,51,50)" index="1224179" value="1"/>
  <variable name="X(50,119,49)" index="1227933" value="1"/>
  <variable name="X(51,11,2615)" index="1234254" value="1"/>
  <variable name="X(51,49,606)" index="1236000" value="1"/>
  <variable name="X(51,50,607)" index="1239756" value="1"/>
  <variable name="X(51,120,50)" index="1242954" value="1"/>
  <variable name="X(52,7,226)" index="1246885" value="1"/>
  <variable name="X(52,8,7)" index="1250421" value="1"/>
  <variable name="X(52,121,51)" index="1254220" value="1"/>
  <variable name="X(53,55,2808)" index="1260732" value="1"/>
  <variable name="X(53,122,52)" index="1261731" value="1"/>
  <variable name="X(54,48,2843)" index="1268277" value="1"/>
  <variable name="X(54,55,2590)" index="1271779" value="1"/>
  <variable name="X(54,123,53)" index="1272997" value="1"/>
  <variable name="X(55,1,2808)" index="1279507" value="1"/>
  <variable name="X(55,6,2812)" index="1283266" value="1"/>
  <variable name="X(55,53,52)" index="1284261" value="1"/>
  <variable name="X(55,54,53)" index="1288017" value="1"/>
  <variable name="X(55,56,55)" index="1291774" value="1"/>
  <variable name="X(55,124,54)" index="1295528" value="1"/>
  <variable name="X(56,55,2977)" index="1302206" value="1"/>
  <variable name="X(56,125,55)" index="1303039" value="1"/>
  <variable name="X(57,31,14)" index="1306753" value="1"/>
  <variable name="X(57,43,811)" index="1311305" value="1"/>
  <variable name="X(57,44,800)" index="1315049" value="1"/>
  <variable name="X(57,126,56)" index="1318060" value="1"/>
  <variable name="X(58,65,3082)" index="1324841" value="1"/>
  <variable name="X(58,67,514)" index="1326028" value="1"/>
  <variable name="X(58,127,57)" index="1329326" value="1"/>
  <variable name="X(59,2,3141)" index="1336165" value="1"/>
  <variable name="X(59,128,58)" index="1336837" value="1"/>
  <variable name="X(60,61,3134)" index="1343668" value="1"/>
  <variable name="X(60,68,3208)" index="1347497" value="1"/>
  <variable name="X(60,129,59)" index="1348103" value="1"/>
  <variable name="X(61,3,3210)" index="1355009" value="1"/>
  <variable name="X(61,60,211)" index="1355765" value="1"/>
  <variable name="X(61,130,60)" index="1359369" value="1"/>
  <variable name="X(62,4,519)" index="1363583" value="1"/>
  <variable name="X(62,13,141)" index="1366960" value="1"/>
  <variable name="X(62,17,465)" index="1371039" value="1"/>
  <variable name="X(62,23,469)" index="1374798" value="1"/>
  <variable name="X(62,27,26)" index="1378110" value="1"/>
  <variable name="X(62,28,27)" index="1381866" value="1"/>
  <variable name="X(62,63,700)" index="1386294" value="1"/>
  <variable name="X(62,64,193)" index="1389542" value="1"/>
  <variable name="X(62,131,61)" index="1393165" value="1"/>
  <variable name="X(63,2,451)" index="1397310" value="1"/>
  <variable name="X(63,9,8)" index="1400622" value="1"/>
  <variable name="X(63,35,34)" index="1404403" value="1"/>
  <variable name="X(63,44,14)" index="1408138" value="1"/>
  <variable name="X(63,62,465)" index="1412344" value="1"/>
  <variable name="X(63,64,41)" index="1415675" value="1"/>
  <variable name="X(63,132,62)" index="1419451" value="1"/>
  <variable name="X(64,42,41)" index="1423185" value="1"/>
  <variable name="X(64,62,2257)" index="1429156" value="1"/>
  <variable name="X(64,63,2258)" index="1432912" value="1"/>
  <variable name="X(64,65,64)" index="1434473" value="1"/>
  <variable name="X(64,133,63)" index="1438227" value="1"/>
  <variable name="X(65,58,125)" index="1442044" value="1"/>
  <variable name="X(65,64,3082)" index="1448756" value="1"/>
  <variable name="X(65,134,64)" index="1449493" value="1"/>
  <variable name="X(66,9,3551)" index="1456735" value="1"/>
  <variable name="X(66,135,65)" index="1457004" value="1"/>
  <variable name="X(67,58,57)" index="1460751" value="1"/>
  <variable name="X(67,68,3081)" index="1467530" value="1"/>
  <variable name="X(67,136,66)" index="1468270" value="1"/>
  <variable name="X(68,60,59)" index="1472018" value="1"/>
  <variable name="X(68,67,57)" index="1475771" value="1"/>
  <variable name="X(68,69,3081)" index="1482550" value="1"/>
  <variable name="X(68,137,67)" index="1483291" value="1"/>
  <variable name="X(69,1,3081)" index="1490060" value="1"/>
  <variable name="X(69,68,57)" index="1490791" value="1"/>
  <variable name="X(69,138,68)" index="1494557" value="1"/>
 </variables>
</CPLEXSolution>
